\ENCODING=ISO-8859-1
\Problem name: config1

Maximize
 obj: - 2 x + y - 4 z + 3 t
Subject To
 cons01: x + y + 3 z + 2 t <= 4
 cons02: x - z + t >= -1
 cons03: 2 x + y <= 2
 cons04: x + 2 y + z + 2 t  = 2
 cons05: y >= 0
 cons06: z >= 0
 cons07: t >= 0
Bounds
      x >= 0
      y Free
      z Free
      t Free
Generals
 x  y  z  t 
End
